proyfinal/src/viki/013/experimentInOfficeAgust.take6.output/04bece80-c83f-42fa-af57-0a5ed2b1e372.als.out
Reading from standard input... Use '--help' for help.
============================[ Problem Statistics ]=============================
|                                                                             |
|  Number of variables:         87638                                         |
|  Number of clauses:          161767                                         |
|  Parse time:                   0.04 s                                       |
|                                                                             |
============================[ Search Statistics ]==============================
| Conflicts |          ORIGINAL         |          LEARNT          | Progress |
|           |    Vars  Clauses Literals |    Limit  Clauses Lit/Cl |          |
===============================================================================
|       100 |   62272   104838   261969 |    38440      100     50 | 28.944 % |
|       250 |   62272   104838   261969 |    42284      250     35 | 28.944 % |
|       475 |   62255   104794   261879 |    46513      472     26 | 28.963 % |
|       812 |   62255   104730   261703 |    51164      717     40 | 28.963 % |
|      1318 |   62255   104730   261703 |    56280     1223     58 | 28.963 % |
|      2077 |   62255   104730   261703 |    61908     1982     56 | 28.963 % |
|      3216 |   62216   104570   261334 |    68099     2350     65 | 29.008 % |
|      4924 |   62212   104554   261290 |    74909     4050     73 | 29.013 % |
|      7486 |   62212   104554   261290 |    82400     6612     76 | 29.013 % |
|     11330 |   62186   104411   260978 |    90640     9935     82 | 29.042 % |
===============================================================================
restarts              : 63
conflicts             : 16759          (6618 /sec)
decisions             : 54209          (0.00 % random) (21406 /sec)
propagations          : 25184304       (9944793 /sec)
conflict literals     : 1324601        (51.77 % deleted)
Memory used           : 35.21 MB
CPU time              : 2.53241 s

UNSATISFIABLE
